2763.37 0
0 17 130 106 113 68 80 82 85 89 5 42 43 45 97 55 52 62 76 72 24 0
0 48 61 58 104 101 41 15 16 90 84 74 77 67 70 110 19 46 0
0 22 78 79 53 56 100 36 3 10 6 7 11 86 119 116 131 115 108 120 0
0 18 81 122 83 25 134 34 50 102 105 14 92 30 31 59 1 75 0
0 21 91 23 26 28 94 2 37 35 57 47 73 71 117 125 127 132 69 0
0 129 109 128 126 33 133 63 60 51 99 95 4 9 12 13 20 0
0 66 112 111 124 123 121 107 114 65 118 64 32 49 54 103 29 93 98 96 38 39 40 44 8 88 87 27 0
